p cnf 11 41
-11 10 -7 0
-11 -9 1 0
-11 -8 5 0
-11 7 6 0
11 -7 -1 0
11 6 2 0
11 -5 3 0
-11 -3 -1 0
11 2 1 0
-11 -2 1 0
-10 -8 -7 0
10 -8 6 0
10 7 4 0
-10 -6 2 0
-10 -5 -4 0
-10 5 -1 0
-10 -5 1 0
-9 -8 7 0
9 8 6 0
9 7 5 0
-9 -7 3 0
-9 7 2 0
9 -6 4 0
9 -4 3 0
-9 -4 -2 0
8 7 6 0
-8 -7 -2 0
8 -6 -1 0
8 5 1 0
8 -3 -2 0
8 -3 -1 0
-7 -6 -4 0
7 6 1 0
7 -4 2 0
-7 3 2 0
6 5 3 0
6 4 3 0
6 -4 -2 0
-5 -4 1 0
5 -4 1 0
3 2 -1 0
